$molecule
0 1
H     0.000000    0.000000    2.933869
C     0.000000    0.000000    1.878441
C     0.000000    0.000000    0.693074
C     0.000000    0.000000   -0.693074
C     0.000000    0.000000   -1.878441
H     0.000000    0.000000   -2.933869
$end

$rem
 basis = 6-311++g**
 method = hf
 nbo = true
 run_nbo6 = true
$end

$nbo
 archive
$end

