$molecule
0 2
C       0.000000       0.000000       0.000000
H       0.000000       1.073600       0.000000
H       0.929765      -0.536800       0.000000
H      -0.929765      -0.536800       0.000000
$end

$rem
 basis = 6-31g*
 method = hf
 nbo = true
 run_nbo6 = true
$end

$nbo
$end


