# rhf/6-311++g** pop=nbo7del

Butadiyne...rhf/6-311++g**

0  1
H     0.000000    0.000000    2.933869
C     0.000000    0.000000    1.878441
C     0.000000    0.000000    0.693074
C     0.000000    0.000000   -0.693074
C     0.000000    0.000000   -1.878441
H     0.000000    0.000000   -2.933869

$nbo $end
$del lewis $end

