&CONTROL

/

&SYSTEM
	a	= 2.46120e+00
	c	= 6.70900e+00
	ibrav	= 4
	nat	= 2
	ntype	= 1
/

ATOMIC_SPECIES
C	12.01070	C.pbe-rrkjus.UPF
ATOMIC_POSITIONS {angstrom}
C	1.230601	0.710487	3.354500
C	-0.000001	1.420975	3.354500
