! b3lyp 6-31g* nbo
* xyz 0 2
C       0.000000       0.000000       0.000003
H      -0.541535       0.937966      -0.000013
H      -0.541535      -0.937966      -0.000013
H       1.083070       0.000000      -0.000013
*
