# uhf/6-31g* pop=nbo7del

Methyl radical...uhf/6-31g*

0 2
C       0.000000       0.000000       0.000000
H       0.000000       1.073600       0.000000
H       0.929765      -0.536800       0.000000
H      -0.929765      -0.536800       0.000000

$nbo $end
$del
   alpha lewis
   beta lewis
$end

