# rhf/3-21g opt pop=nbo7

Methylamine...rhf/3-21g optimization

0 1
C
N   1   1.47
H   1   1.09   2   109.4712
H   1   1.09   2   109.4712   3   120. 0
H   1   1.09   2   109.4712   3   240. 0
H   2   1.01   1   109.4712   3    60. 0
H   2   1.01   1   109.4712   3   300. 0

