 $contrl  dfttyp=b3lyp  scftyp=rhf  runtyp=energy  nosym=1  ispher=1
    $end
 $system  mwords=100  $end
 $basis  gbasis=acct  $end
 $nbo  $end
 $del  neda end  $end
 $data
C3 water trimer...b3lyp/avtz
Cn 3

Oxygen     8.    -0.957406    1.304375   -0.091870
Hydrogen   1.     0.014172    1.244266   -0.037940
Hydrogen   1.    -1.225393    1.975012    0.541376
 $end
