 $contrl  scftyp=rhf  runtyp=energy  coord=zmt  $end
 $basis  gbasis=n21  ngauss=3  $end
 $nbo  $end
 $del  
  nostar
  delete 1 element 3 11
 $end
 $data
Methylamine...rhf/3-21g//Pople-Gordon idealized geometry
Cs

C
N  1  1.47
H  1  1.09  2  109.4712
H  1  1.09  2  109.4712  3  120. 0
H  1  1.09  2  109.4712  3  240. 0
H  2  1.01  1  109.4712  3   60. 0
H  2  1.01  1  109.4712  3  300. 0
 $end
