 $contrl  scftyp=uhf  runtyp=energy  mult=2  $end
 $basis  gbasis=n31  ngauss=6  ndfunc=1  $end
 $nbo  $end
 $del
    alpha lewis
    beta lewis
 $end
 $data
Methyl radical...uhf/6-31g*
C1
C     6.     0.000000       0.000000       0.000000
H     1.     0.000000       1.073600       0.000000
H     1.     0.929765      -0.536800       0.000000
H     1.    -0.929765      -0.536800       0.000000
 $end
