 $contrl  dfttyp=camb3lyp  scftyp=rhf  runtyp=energy  nosym=1  $end
 $basis  gbasis=n31  ngauss=4  $end
 $nbo  $end
 $del  neda end  $end
 $data
Water dimer...rhf/4-31g//Umeyama, Morokuma, JACS 99, 1316 (1977)    
Cs

Oxygen    8.      -0.004158      -1.425700       0.000000
Hydrogen  1.       0.498701      -1.716026       0.759460
Oxygen    8.      -0.004158       1.554300       0.000000
Hydrogen  1.      -0.926714       1.804953       0.000000
Hydrogen  1.      -0.004158       0.598300       0.000000
 $end

