 $contrl  dfttyp=b3lyp  scftyp=rhf  runtyp=energy
   ecp=read  icharg=+1  nosym=1  $end
 $nbo  $end
 $del  neda end  $end
 $data
K(+)..OH2...b3lyp/Hay-Wadt/6-31+g*
Cnv      2

 K          19.0    .0000000000    .0000000000   -.5778786589
   S   4
    1  3.0720000   -.3084300
    2   .6752000    .7823840
    3   .2545000    .4144540
    4   .0529000   -.0024350
   S   4
    1  3.0720000    .0688870
    2   .6752000   -.1990260
    3   .2545000   -.2755520
    4   .0529000    .3619550
   S   1
    1   .0209000   1.0000000
   P   4
    1  8.2330000   -.0417380
    2   .9526000    .5741890
    3   .3013000    .5202960
    3   .0376000    .0308220
   P   1
    1   .0140000   1.0000000
   D   1
    1   .48        1.0000000

 O           8.0    .0000000000    .0000000000   2.0915194208
   N31 6
   L   1
    1   .0845000   1.0000000
   D   1
    1   .8000000   1.0000000

 H           1.0    .0000000000    .7568415340   2.6682992938
   N31 6

 $end      
 $ecp
K-ECP GEN 10 2
5  --- d potential ---
 -10.0000000   1  1067.1081575
-124.3469306   2   218.4185142
 -43.9937468   2    50.0433502
 -16.5946158   2    14.9374500
  -1.8728686   2     5.0996937
3  --- s-d potential ---
   3.0000000   0    16.5503988
  10.4828609   1    19.1641591
  45.4561569   2     4.8910684
5  --- p-d potential ---
   5.0000000   0    95.3645855
   5.5748307   1   119.1209062
 309.6493189   2    57.0795815
 125.5951809   2    17.4450910
  23.1977649   2     4.4636131
O-ECP NONE
H-ECP NONE
H-ECP     
 $end
