 $contrl  scftyp=rhf  runtyp=trudge  coord=hint  $end
 $basis  gbasis=n31  ngauss=6  ndfunc=1  $end
 $trudge  optmiz=geometry  npar=5  iex(1)=11,21,22,31,32  $end
 $trurst  tolf=0.0001  tolr=0.001  fnoise=0.00001  $end
 $nbo  print=0  nbosum  $end
 $choose
   lone 3 3 4 3 end
   bond d 1 2 s 1 3 s 1 5 s 2 4 s 2 6 end
 $end
 $del  delete 2 orbitals 19 21  $end
 $data
Geometry optimization of cis-1,2-difluoroethene (no CF*s)
Cnv 2

C    6.    LC    0.67     0.00    0.00 + O I
F    9.    TCT   1.33   120.00    0.00 + 1 O K
H    1.    TCT   1.08   120.00  180.00 + 1 O K
 $end
